33D32945 STP File, STP Format Version 1.0

SECTION Comment
Name "i640-003-PCST"
Creator "Indaco Biazzo" 
Remark "derived from Incidence graph by Cees Duin"
END

SECTION Graph
Nodes 640
Edges 960
E 1 401 193.000000
E 1 437 192.000000
E 1 587 193.000000
E 2 108 197.000000
E 2 355 200.000000
E 2 442 201.000000
E 3 248 202.000000
E 3 369 192.000000
E 3 615 191.000000
E 4 264 188.000000
E 5 423 196.000000
E 5 445 200.000000
E 5 638 205.000000
E 6 80 208.000000
E 7 82 206.000000
E 7 85 202.000000
E 7 329 193.000000
E 7 628 200.000000
E 8 182 200.000000
E 8 324 209.000000
E 8 451 198.000000
E 8 606 195.000000
E 9 67 202.000000
E 9 118 196.000000
E 9 313 196.000000
E 9 446 201.000000
E 9 588 198.000000
E 9 615 204.000000
E 10 33 102.000000
E 10 50 97.000000
E 10 247 99.000000
E 10 375 94.000000
E 11 69 96.000000
E 11 169 93.000000
E 11 558 96.000000
E 12 129 97.000000
E 12 378 102.000000
E 12 392 106.000000
E 13 407 97.000000
E 13 420 104.000000
E 13 587 104.000000
E 14 141 99.000000
E 14 211 86.000000
E 14 544 106.000000
E 15 16 106.000000
E 16 238 95.000000
E 16 261 108.000000
E 16 264 102.000000
E 16 537 107.000000
E 16 591 105.000000
E 17 129 94.000000
E 17 143 91.000000
E 18 32 107.000000
E 19 220 96.000000
E 20 57 103.000000
E 20 242 104.000000
E 21 131 95.000000
E 21 267 100.000000
E 21 317 100.000000
E 21 455 96.000000
E 22 77 101.000000
E 22 190 89.000000
E 22 212 91.000000
E 22 381 97.000000
E 22 405 95.000000
E 22 510 105.000000
E 23 367 107.000000
E 23 478 101.000000
E 23 512 105.000000
E 23 549 96.000000
E 23 577 100.000000
E 24 264 102.000000
E 25 83 98.000000
E 25 276 102.000000
E 25 465 96.000000
E 26 157 91.000000
E 26 531 104.000000
E 27 53 94.000000
E 27 409 91.000000
E 28 44 96.000000
E 28 162 104.000000
E 28 176 98.000000
E 28 435 95.000000
E 28 551 107.000000
E 29 117 100.000000
E 29 198 98.000000
E 29 596 96.000000
E 29 634 101.000000
E 30 178 96.000000
E 30 359 101.000000
E 30 511 98.000000
E 31 292 90.000000
E 31 390 104.000000
E 31 468 96.000000
E 32 445 89.000000
E 32 558 93.000000
E 33 63 93.000000
E 33 153 94.000000
E 33 451 95.000000
E 33 474 101.000000
E 33 606 99.000000
E 34 68 95.000000
E 34 386 96.000000
E 34 517 106.000000
E 34 596 99.000000
E 35 469 102.000000
E 35 500 96.000000
E 35 590 96.000000
E 36 53 102.000000
E 36 472 102.000000
E 37 242 103.000000
E 37 374 90.000000
E 38 188 99.000000
E 38 551 104.000000
E 38 607 91.000000
E 39 286 101.000000
E 39 355 103.000000
E 39 422 95.000000
E 40 63 108.000000
E 40 122 104.000000
E 40 194 97.000000
E 41 223 103.000000
E 41 418 96.000000
E 42 309 105.000000
E 42 461 103.000000
E 43 183 95.000000
E 43 196 87.000000
E 44 186 104.000000
E 45 114 100.000000
E 45 348 91.000000
E 45 440 99.000000
E 45 491 100.000000
E 46 592 90.000000
E 47 52 98.000000
E 47 497 105.000000
E 48 590 96.000000
E 49 355 106.000000
E 49 401 104.000000
E 50 574 95.000000
E 51 85 98.000000
E 51 219 91.000000
E 51 407 97.000000
E 51 617 104.000000
E 52 143 99.000000
E 52 176 106.000000
E 52 287 97.000000
E 52 530 107.000000
E 52 570 93.000000
E 52 609 96.000000
E 52 622 94.000000
E 53 278 94.000000
E 54 212 104.000000
E 54 575 98.000000
E 55 110 96.000000
E 55 236 106.000000
E 55 376 102.000000
E 55 545 101.000000
E 56 151 107.000000
E 56 304 102.000000
E 56 598 100.000000
E 57 227 101.000000
E 57 587 104.000000
E 58 270 97.000000
E 58 319 100.000000
E 58 403 99.000000
E 59 234 101.000000
E 59 527 97.000000
E 60 194 93.000000
E 61 162 91.000000
E 61 234 102.000000
E 61 263 102.000000
E 61 326 99.000000
E 61 437 104.000000
E 62 327 99.000000
E 63 284 100.000000
E 63 489 109.000000
E 64 547 102.000000
E 65 218 94.000000
E 65 302 100.000000
E 66 200 107.000000
E 66 312 106.000000
E 66 485 105.000000
E 66 496 98.000000
E 66 498 93.000000
E 67 280 94.000000
E 67 537 98.000000
E 68 361 105.000000
E 68 429 92.000000
E 69 83 100.000000
E 69 85 99.000000
E 69 327 100.000000
E 69 538 101.000000
E 69 570 100.000000
E 69 573 107.000000
E 70 359 99.000000
E 70 576 95.000000
E 70 594 102.000000
E 71 147 105.000000
E 71 327 97.000000
E 71 365 97.000000
E 71 370 96.000000
E 72 262 104.000000
E 72 538 101.000000
E 73 86 104.000000
E 74 249 102.000000
E 75 165 90.000000
E 75 236 95.000000
E 75 258 90.000000
E 75 330 100.000000
E 75 630 98.000000
E 76 437 100.000000
E 78 425 102.000000
E 79 375 98.000000
E 79 518 100.000000
E 79 534 91.000000
E 80 147 104.000000
E 81 126 98.000000
E 81 416 97.000000
E 82 155 96.000000
E 83 138 104.000000
E 83 308 99.000000
E 83 468 102.000000
E 83 521 92.000000
E 84 281 106.000000
E 84 526 100.000000
E 84 567 100.000000
E 84 605 100.000000
E 85 307 101.000000
E 85 436 102.000000
E 85 499 99.000000
E 85 605 101.000000
E 86 115 103.000000
E 86 152 97.000000
E 86 296 105.000000
E 86 553 100.000000
E 87 261 105.000000
E 87 587 95.000000
E 88 231 112.000000
E 88 375 96.000000
E 89 640 106.000000
E 90 495 96.000000
E 91 104 108.000000
E 92 524 98.000000
E 93 236 100.000000
E 93 249 103.000000
E 93 303 104.000000
E 94 210 93.000000
E 95 280 105.000000
E 95 582 95.000000
E 96 114 87.000000
E 96 221 103.000000
E 96 562 98.000000
E 96 586 103.000000
E 97 489 103.000000
E 97 608 102.000000
E 98 459 103.000000
E 98 598 100.000000
E 99 261 98.000000
E 100 135 104.000000
E 100 183 101.000000
E 100 235 92.000000
E 100 277 107.000000
E 100 293 109.000000
E 100 401 99.000000
E 100 539 98.000000
E 101 121 106.000000
E 101 231 102.000000
E 102 358 94.000000
E 102 466 101.000000
E 103 105 102.000000
E 103 167 98.000000
E 103 185 100.000000
E 103 476 95.000000
E 104 179 95.000000
E 104 212 101.000000
E 104 451 98.000000
E 104 500 88.000000
E 105 297 94.000000
E 106 328 95.000000
E 106 430 106.000000
E 107 164 102.000000
E 107 193 92.000000
E 107 291 97.000000
E 108 409 100.000000
E 108 413 98.000000
E 108 591 101.000000
E 109 512 101.000000
E 110 189 98.000000
E 111 216 101.000000
E 112 143 99.000000
E 112 458 96.000000
E 112 520 101.000000
E 113 220 100.000000
E 113 230 100.000000
E 113 247 109.000000
E 113 451 100.000000
E 114 211 104.000000
E 114 363 100.000000
E 115 148 99.000000
E 115 340 111.000000
E 115 524 88.000000
E 115 528 92.000000
E 116 559 105.000000
E 117 625 101.000000
E 118 391 103.000000
E 118 621 97.000000
E 119 137 93.000000
E 119 306 107.000000
E 119 319 105.000000
E 120 274 102.000000
E 121 332 100.000000
E 123 221 94.000000
E 123 252 105.000000
E 123 387 96.000000
E 123 517 100.000000
E 123 525 90.000000
E 123 555 109.000000
E 124 141 96.000000
E 124 622 105.000000
E 125 636 105.000000
E 126 320 98.000000
E 126 377 106.000000
E 126 469 97.000000
E 127 268 106.000000
E 127 356 104.000000
E 127 484 101.000000
E 128 220 99.000000
E 129 209 100.000000
E 129 454 103.000000
E 129 483 102.000000
E 129 578 95.000000
E 129 608 95.000000
E 129 637 96.000000
E 130 185 102.000000
E 130 254 103.000000
E 130 495 97.000000
E 130 527 95.000000
E 130 542 91.000000
E 130 606 101.000000
E 131 254 102.000000
E 131 279 96.000000
E 131 379 96.000000
E 132 201 102.000000
E 132 313 97.000000
E 132 328 98.000000
E 132 478 99.000000
E 133 291 95.000000
E 133 546 93.000000
E 134 415 104.000000
E 134 565 97.000000
E 136 438 97.000000
E 136 639 104.000000
E 137 200 106.000000
E 137 355 104.000000
E 137 427 94.000000
E 137 542 103.000000
E 137 546 103.000000
E 137 581 98.000000
E 139 487 91.000000
E 140 497 106.000000
E 141 149 103.000000
E 141 412 104.000000
E 141 474 105.000000
E 141 499 109.000000
E 141 535 100.000000
E 142 219 98.000000
E 142 450 101.000000
E 142 476 100.000000
E 142 500 100.000000
E 142 571 101.000000
E 143 342 89.000000
E 143 560 105.000000
E 143 569 93.000000
E 144 169 107.000000
E 144 424 104.000000
E 144 465 105.000000
E 144 514 95.000000
E 145 283 98.000000
E 145 291 92.000000
E 146 362 99.000000
E 147 463 96.000000
E 147 500 86.000000
E 150 358 96.000000
E 150 441 96.000000
E 150 519 94.000000
E 150 635 101.000000
E 151 550 95.000000
E 153 217 101.000000
E 153 496 103.000000
E 154 159 93.000000
E 154 170 99.000000
E 154 511 105.000000
E 154 570 105.000000
E 155 618 92.000000
E 156 211 99.000000
E 156 333 91.000000
E 156 460 96.000000
E 157 206 103.000000
E 157 438 98.000000
E 157 580 99.000000
E 158 180 97.000000
E 160 162 100.000000
E 160 193 98.000000
E 161 244 103.000000
E 161 339 108.000000
E 162 213 98.000000
E 163 396 98.000000
E 163 509 98.000000
E 164 169 100.000000
E 164 217 97.000000
E 165 457 105.000000
E 165 591 102.000000
E 166 228 104.000000
E 166 357 101.000000
E 168 262 99.000000
E 168 350 98.000000
E 168 382 103.000000
E 169 232 96.000000
E 170 281 103.000000
E 170 314 106.000000
E 170 336 102.000000
E 170 429 102.000000
E 170 438 105.000000
E 171 598 108.000000
E 172 341 96.000000
E 172 473 103.000000
E 172 616 104.000000
E 173 351 102.000000
E 174 194 88.000000
E 175 231 98.000000
E 175 449 100.000000
E 175 604 110.000000
E 176 227 107.000000
E 176 300 95.000000
E 176 498 107.000000
E 176 503 100.000000
E 176 577 99.000000
E 177 491 106.000000
E 177 549 90.000000
E 177 586 108.000000
E 179 557 95.000000
E 180 210 102.000000
E 180 230 91.000000
E 180 265 100.000000
E 180 422 107.000000
E 181 189 102.000000
E 181 416 86.000000
E 181 482 100.000000
E 182 467 96.000000
E 182 494 101.000000
E 182 499 101.000000
E 183 236 100.000000
E 183 417 95.000000
E 183 610 91.000000
E 183 613 93.000000
E 184 267 99.000000
E 185 517 102.000000
E 185 624 103.000000
E 185 636 92.000000
E 186 272 110.000000
E 186 612 96.000000
E 187 594 103.000000
E 188 311 107.000000
E 188 334 96.000000
E 188 617 98.000000
E 189 337 92.000000
E 189 433 94.000000
E 190 355 107.000000
E 191 432 98.000000
E 191 530 110.000000
E 192 529 96.000000
E 192 636 97.000000
E 193 547 100.000000
E 194 359 98.000000
E 194 598 102.000000
E 195 519 98.000000
E 196 289 97.000000
E 197 367 98.000000
E 197 383 91.000000
E 198 291 93.000000
E 199 305 95.000000
E 199 312 103.000000
E 200 340 98.000000
E 200 360 94.000000
E 200 413 97.000000
E 201 502 109.000000
E 201 526 106.000000
E 202 443 99.000000
E 202 481 102.000000
E 202 560 100.000000
E 202 577 99.000000
E 203 394 110.000000
E 204 526 92.000000
E 204 629 92.000000
E 205 355 102.000000
E 206 306 104.000000
E 207 364 88.000000
E 207 616 90.000000
E 208 217 106.000000
E 209 548 100.000000
E 210 303 91.000000
E 210 339 100.000000
E 211 358 94.000000
E 211 506 105.000000
E 212 385 95.000000
E 213 311 91.000000
E 213 424 103.000000
E 213 526 96.000000
E 214 266 98.000000
E 214 403 98.000000
E 214 462 94.000000
E 214 587 95.000000
E 215 404 102.000000
E 215 428 104.000000
E 215 607 95.000000
E 216 543 99.000000
E 216 556 106.000000
E 216 622 101.000000
E 217 484 100.000000
E 217 601 101.000000
E 218 322 101.000000
E 218 339 96.000000
E 218 357 97.000000
E 218 362 99.000000
E 218 587 102.000000
E 220 348 98.000000
E 221 316 105.000000
E 221 494 90.000000
E 221 565 106.000000
E 222 474 102.000000
E 222 477 87.000000
E 223 358 98.000000
E 223 361 104.000000
E 223 437 101.000000
E 223 547 99.000000
E 223 576 95.000000
E 224 372 92.000000
E 224 509 106.000000
E 225 293 106.000000
E 225 447 98.000000
E 226 235 103.000000
E 226 616 97.000000
E 227 296 97.000000
E 227 465 102.000000
E 228 617 102.000000
E 229 574 93.000000
E 230 309 97.000000
E 230 365 91.000000
E 230 570 99.000000
E 231 287 97.000000
E 231 343 90.000000
E 231 441 100.000000
E 231 562 92.000000
E 232 572 107.000000
E 232 608 102.000000
E 232 625 99.000000
E 233 477 95.000000
E 234 347 102.000000
E 234 376 105.000000
E 235 408 91.000000
E 235 540 101.000000
E 236 636 106.000000
E 237 392 94.000000
E 237 502 98.000000
E 237 519 101.000000
E 238 290 94.000000
E 238 440 98.000000
E 238 594 94.000000
E 239 314 100.000000
E 239 529 96.000000
E 239 549 100.000000
E 240 282 99.000000
E 240 316 95.000000
E 240 322 108.000000
E 240 386 96.000000
E 240 548 107.000000
E 241 560 95.000000
E 241 579 100.000000
E 242 542 100.000000
E 243 585 100.000000
E 244 422 103.000000
E 244 528 102.000000
E 245 344 103.000000
E 245 539 85.000000
E 246 460 113.000000
E 247 274 94.000000
E 247 327 93.000000
E 248 562 92.000000
E 249 252 101.000000
E 249 508 99.000000
E 249 568 102.000000
E 250 503 98.000000
E 251 500 104.000000
E 251 538 101.000000
E 251 563 106.000000
E 252 269 102.000000
E 252 409 105.000000
E 252 416 99.000000
E 252 517 100.000000
E 253 284 108.000000
E 253 504 100.000000
E 253 564 104.000000
E 254 325 98.000000
E 254 416 98.000000
E 254 518 91.000000
E 255 301 98.000000
E 255 617 98.000000
E 256 265 101.000000
E 256 545 101.000000
E 256 632 102.000000
E 257 312 99.000000
E 257 473 94.000000
E 258 637 99.000000
E 259 284 107.000000
E 259 432 105.000000
E 260 291 103.000000
E 260 562 105.000000
E 261 636 99.000000
E 262 434 96.000000
E 263 316 97.000000
E 263 368 102.000000
E 263 463 97.000000
E 264 520 99.000000
E 265 477 94.000000
E 266 589 104.000000
E 267 495 98.000000
E 267 615 95.000000
E 268 288 101.000000
E 268 440 92.000000
E 269 424 99.000000
E 270 323 97.000000
E 270 490 95.000000
E 270 576 102.000000
E 271 491 100.000000
E 272 440 93.000000
E 273 358 102.000000
E 273 397 105.000000
E 273 425 103.000000
E 274 297 100.000000
E 274 317 99.000000
E 275 319 97.000000
E 275 503 94.000000
E 276 325 108.000000
E 277 609 102.000000
E 278 424 106.000000
E 278 490 100.000000
E 279 310 96.000000
E 279 395 111.000000
E 279 501 100.000000
E 280 378 105.000000
E 280 398 100.000000
E 280 591 99.000000
E 281 311 97.000000
E 282 285 101.000000
E 282 453 106.000000
E 284 527 95.000000
E 284 552 92.000000
E 284 556 102.000000
E 285 516 98.000000
E 285 617 99.000000
E 288 334 103.000000
E 288 349 100.000000
E 288 530 103.000000
E 289 305 104.000000
E 289 319 109.000000
E 289 482 108.000000
E 289 516 95.000000
E 290 317 101.000000
E 291 447 92.000000
E 291 615 95.000000
E 292 430 108.000000
E 292 616 105.000000
E 293 572 93.000000
E 294 419 103.000000
E 294 432 94.000000
E 295 355 90.000000
E 295 601 99.000000
E 296 533 93.000000
E 297 350 99.000000
E 297 431 90.000000
E 298 465 112.000000
E 298 506 103.000000
E 299 448 97.000000
E 299 512 94.000000
E 299 614 103.000000
E 301 358 95.000000
E 301 418 102.000000
E 303 320 95.000000
E 303 583 104.000000
E 303 625 94.000000
E 304 439 94.000000
E 304 497 102.000000
E 304 546 95.000000
E 305 516 104.000000
E 306 627 98.000000
E 307 351 94.000000
E 308 335 105.000000
E 308 582 97.000000
E 308 584 94.000000
E 309 547 102.000000
E 310 511 95.000000
E 310 603 84.000000
E 311 623 103.000000
E 312 436 101.000000
E 312 623 111.000000
E 314 488 101.000000
E 315 388 104.000000
E 318 379 103.000000
E 318 541 100.000000
E 319 331 107.000000
E 319 474 100.000000
E 321 349 95.000000
E 321 573 104.000000
E 322 347 99.000000
E 322 406 95.000000
E 323 587 108.000000
E 323 610 102.000000
E 325 599 106.000000
E 326 429 100.000000
E 327 419 105.000000
E 327 610 102.000000
E 328 577 99.000000
E 329 589 96.000000
E 330 584 103.000000
E 330 614 97.000000
E 331 339 101.000000
E 331 402 101.000000
E 332 344 94.000000
E 332 400 111.000000
E 332 516 104.000000
E 334 399 113.000000
E 334 597 94.000000
E 335 558 98.000000
E 336 504 102.000000
E 338 534 97.000000
E 339 489 98.000000
E 339 570 100.000000
E 340 483 103.000000
E 341 385 97.000000
E 343 354 101.000000
E 343 561 94.000000
E 344 362 103.000000
E 344 640 107.000000
E 345 564 95.000000
E 346 488 100.000000
E 346 522 101.000000
E 346 601 98.000000
E 349 454 97.000000
E 350 554 107.000000
E 352 401 97.000000
E 352 466 105.000000
E 352 558 94.000000
E 352 592 94.000000
E 352 609 102.000000
E 353 459 96.000000
E 353 622 91.000000
E 353 627 97.000000
E 355 392 95.000000
E 355 416 109.000000
E 355 521 106.000000
E 355 535 94.000000
E 356 489 93.000000
E 357 523 94.000000
E 358 404 111.000000
E 360 564 94.000000
E 361 452 90.000000
E 362 585 100.000000
E 363 372 98.000000
E 366 558 101.000000
E 366 559 100.000000
E 366 598 102.000000
E 366 634 104.000000
E 367 420 95.000000
E 369 637 107.000000
E 370 389 104.000000
E 370 535 104.000000
E 371 592 105.000000
E 372 449 96.000000
E 372 571 98.000000
E 373 440 100.000000
E 374 556 101.000000
E 375 531 100.000000
E 376 577 103.000000
E 377 570 95.000000
E 379 538 96.000000
E 380 499 96.000000
E 381 394 99.000000
E 381 440 99.000000
E 382 560 95.000000
E 383 457 107.000000
E 384 416 97.000000
E 384 471 99.000000
E 386 598 103.000000
E 387 598 97.000000
E 388 421 108.000000
E 388 422 97.000000
E 389 405 98.000000
E 393 493 98.000000
E 394 495 95.000000
E 396 534 106.000000
E 397 418 98.000000
E 397 568 97.000000
E 397 629 96.000000
E 400 587 98.000000
E 401 441 94.000000
E 401 466 98.000000
E 401 473 101.000000
E 401 484 97.000000
E 401 584 104.000000
E 401 587 109.000000
E 401 617 86.000000
E 404 424 96.000000
E 404 511 96.000000
E 404 515 95.000000
E 404 574 106.000000
E 406 419 96.000000
E 407 456 93.000000
E 410 499 99.000000
E 411 532 106.000000
E 411 597 97.000000
E 412 503 92.000000
E 414 566 92.000000
E 415 620 101.000000
E 416 500 101.000000
E 418 506 99.000000
E 418 605 98.000000
E 419 617 98.000000
E 421 476 95.000000
E 421 534 105.000000
E 422 480 97.000000
E 422 570 103.000000
E 422 595 102.000000
E 423 508 99.000000
E 423 608 98.000000
E 424 534 91.000000
E 425 553 95.000000
E 426 562 96.000000
E 427 606 96.000000
E 427 615 93.000000
E 428 619 104.000000
E 430 598 95.000000
E 432 566 101.000000
E 433 452 103.000000
E 433 469 94.000000
E 433 532 96.000000
E 434 496 95.000000
E 436 633 92.000000
E 437 489 110.000000
E 437 631 104.000000
E 438 577 98.000000
E 438 636 107.000000
E 439 584 103.000000
E 439 634 95.000000
E 440 492 87.000000
E 441 548 103.000000
E 443 617 99.000000
E 444 485 102.000000
E 444 537 105.000000
E 444 555 104.000000
E 446 506 95.000000
E 446 626 96.000000
E 447 453 104.000000
E 447 599 102.000000
E 447 602 99.000000
E 448 557 104.000000
E 449 468 102.000000
E 449 598 103.000000
E 450 502 99.000000
E 451 589 101.000000
E 451 616 96.000000
E 454 457 89.000000
E 454 563 99.000000
E 454 573 96.000000
E 454 577 96.000000
E 455 518 93.000000
E 456 526 103.000000
E 457 502 99.000000
E 458 506 107.000000
E 459 525 101.000000
E 461 552 95.000000
E 461 617 101.000000
E 462 534 107.000000
E 464 475 104.000000
E 464 591 97.000000
E 465 562 92.000000
E 465 609 97.000000
E 466 550 105.000000
E 466 556 114.000000
E 468 528 101.000000
E 469 523 98.000000
E 470 500 107.000000
E 472 593 104.000000
E 479 505 101.000000
E 481 555 87.000000
E 486 598 94.000000
E 486 625 107.000000
E 487 593 96.000000
E 491 503 92.000000
E 491 611 103.000000
E 493 546 102.000000
E 496 602 99.000000
E 498 600 108.000000
E 498 636 101.000000
E 499 627 110.000000
E 500 515 103.000000
E 500 520 103.000000
E 500 536 91.000000
E 500 547 95.000000
E 500 577 99.000000
E 500 587 94.000000
E 503 593 93.000000
E 503 617 98.000000
E 504 513 98.000000
E 504 596 94.000000
E 505 615 102.000000
E 507 587 95.000000
E 509 598 101.000000
E 511 516 90.000000
E 511 554 104.000000
E 513 598 96.000000
E 514 519 100.000000
E 514 585 98.000000
E 515 598 100.000000
E 515 624 100.000000
E 517 542 99.000000
E 517 559 94.000000
E 517 615 90.000000
E 519 586 100.000000
E 522 588 98.000000
E 524 595 92.000000
E 526 628 103.000000
E 527 564 99.000000
E 529 572 100.000000
E 530 536 95.000000
E 531 574 94.000000
E 532 635 95.000000
E 541 568 104.000000
E 544 558 96.000000
E 544 564 99.000000
E 545 608 94.000000
E 546 567 99.000000
E 547 626 101.000000
E 548 579 97.000000
E 553 571 96.000000
E 553 640 100.000000
E 557 585 101.000000
E 558 562 87.000000
E 564 622 99.000000
E 565 582 109.000000
E 568 635 100.000000
E 578 621 103.000000
E 583 591 99.000000
E 584 615 103.000000
E 587 632 97.000000
E 587 640 112.000000
E 594 622 101.000000
E 596 636 96.000000
E 611 639 96.000000
E 614 626 95.000000
E 622 630 99.000000
END

SECTION Terminals
Terminals 9
TP 1 68.000000
TP 2 412.000000
TP 3 456.000000
TP 4 72.000000
TP 5 804.000000
TP 6 140.000000
TP 7 588.000000
TP 8 364.000000
TP 9 640.000000
END

EOF
